GGA=PE
ISMEAR=-5
POTIM=0.1
SYMPREC=1E-6
EDIFF=1E-6
EDIFFG=-0.01
ENCUT=500
ALGO=N
NPAR=4
NSW=NSW_val
IBRION=IBRION_val
ISIF=ISIF_val
